(set-logic ALL)
(declare-const pattern_VAR String)
(declare-const text_VAR String)
(assert (not (> (str.len pattern_VAR) (str.len text_VAR))))
(assert (< 0 (str.len pattern_VAR)))
(assert (> (str.len pattern_VAR) 0))
(assert (> (str.len text_VAR) 0))
(assert (not (= 0 (- (str.len pattern_VAR) 1))))
(assert (< 1 (str.len pattern_VAR)))
(assert (> (str.len pattern_VAR) 1))
(assert (> (str.len text_VAR) 1))
(assert (not (= 1 (- (str.len pattern_VAR) 1))))
(assert (< 2 (str.len pattern_VAR)))
(assert (> (str.len pattern_VAR) 2))
(assert (> (str.len text_VAR) 2))
(assert (not (= 2 (- (str.len pattern_VAR) 1))))
(assert (< 3 (str.len pattern_VAR)))
(assert (> (str.len pattern_VAR) 3))
(assert (> (str.len text_VAR) 3))
(assert (not (= 3 (- (str.len pattern_VAR) 1))))
(assert (< 4 (str.len pattern_VAR)))
(assert (> (str.len pattern_VAR) 4))
(assert (> (str.len text_VAR) 4))
(assert (not (= 4 (- (str.len pattern_VAR) 1))))
(assert (< 5 (str.len pattern_VAR)))
(assert (> (str.len pattern_VAR) 5))
(assert (> (str.len text_VAR) 5))
(assert (not (= 5 (- (str.len pattern_VAR) 1))))
(assert (< 6 (str.len pattern_VAR)))
(assert (> (str.len pattern_VAR) 6))
(assert (> (str.len text_VAR) 6))
(assert (not (= 6 (- (str.len pattern_VAR) 1))))
(assert (< 7 (str.len pattern_VAR)))
(assert (> (str.len pattern_VAR) 7))
(assert (> (str.len text_VAR) 7))
(assert (not (= 7 (- (str.len pattern_VAR) 1))))
(assert (< 8 (str.len pattern_VAR)))
(assert (> (str.len pattern_VAR) 8))
(assert (> (str.len text_VAR) 8))
(assert (not (= 8 (- (str.len pattern_VAR) 1))))
(assert (< 9 (str.len pattern_VAR)))
(assert (> (str.len pattern_VAR) 9))
(assert (> (str.len text_VAR) 9))
(assert (not (= 9 (- (str.len pattern_VAR) 1))))
(assert (< 10 (str.len pattern_VAR)))
(assert (> (str.len pattern_VAR) 10))
(assert (> (str.len text_VAR) 10))
(assert (not (= 10 (- (str.len pattern_VAR) 1))))
(assert (< 11 (str.len pattern_VAR)))
(assert (> (str.len pattern_VAR) 11))
(assert (> (str.len text_VAR) 11))
(assert (not (= 11 (- (str.len pattern_VAR) 1))))
(assert (< 12 (str.len pattern_VAR)))
(assert (> (str.len pattern_VAR) 12))
(assert (> (str.len text_VAR) 12))
(assert (not (= 12 (- (str.len pattern_VAR) 1))))
(assert (< 13 (str.len pattern_VAR)))
(assert (> (str.len pattern_VAR) 13))
(assert (> (str.len text_VAR) 13))
(assert (not (= 13 (- (str.len pattern_VAR) 1))))
(assert (< 14 (str.len pattern_VAR)))
(assert (> (str.len pattern_VAR) 14))
(assert (> (str.len text_VAR) 14))
(assert (not (= 14 (- (str.len pattern_VAR) 1))))
(assert (< 15 (str.len pattern_VAR)))
(assert (> (str.len pattern_VAR) 15))
(assert (> (str.len text_VAR) 15))
(assert (not (= 15 (- (str.len pattern_VAR) 1))))
(assert (< 16 (str.len pattern_VAR)))
(assert (> (str.len pattern_VAR) 16))
(assert (> (str.len text_VAR) 16))
(assert (not (= 16 (- (str.len pattern_VAR) 1))))
(assert (< 17 (str.len pattern_VAR)))
(assert (> (str.len pattern_VAR) 17))
(assert (> (str.len text_VAR) 17))
(assert (not (= 17 (- (str.len pattern_VAR) 1))))
(assert (< 18 (str.len pattern_VAR)))
(assert (> (str.len pattern_VAR) 18))
(assert (> (str.len text_VAR) 18))
(assert (not (= 18 (- (str.len pattern_VAR) 1))))
(assert (< 19 (str.len pattern_VAR)))
(assert (> (str.len pattern_VAR) 19))
(assert (> (str.len text_VAR) 19))
(assert (not (= 19 (- (str.len pattern_VAR) 1))))
(assert (< 20 (str.len pattern_VAR)))
(assert (> (str.len pattern_VAR) 20))
(assert (> (str.len text_VAR) 20))
(assert (not (= 20 (- (str.len pattern_VAR) 1))))
(assert (< 21 (str.len pattern_VAR)))
(assert (> (str.len pattern_VAR) 21))
(assert (> (str.len text_VAR) 21))
(assert (not (= 21 (- (str.len pattern_VAR) 1))))
(assert (< 22 (str.len pattern_VAR)))
(assert (> (str.len pattern_VAR) 22))
(assert (> (str.len text_VAR) 22))
(assert (not (= 22 (- (str.len pattern_VAR) 1))))
(assert (< 23 (str.len pattern_VAR)))
(assert (> (str.len pattern_VAR) 23))
(assert (> (str.len text_VAR) 23))
(assert (not (= 23 (- (str.len pattern_VAR) 1))))
(assert (< 24 (str.len pattern_VAR)))
(assert (> (str.len pattern_VAR) 24))
(assert (> (str.len text_VAR) 24))
(assert (not (= 24 (- (str.len pattern_VAR) 1))))
(assert (< 25 (str.len pattern_VAR)))
(assert (> (str.len pattern_VAR) 25))
(assert (> (str.len text_VAR) 25))
(assert (not (= 25 (- (str.len pattern_VAR) 1))))
(assert (< 26 (str.len pattern_VAR)))
(assert (> (str.len pattern_VAR) 26))
(assert (> (str.len text_VAR) 26))
(assert (not (= 26 (- (str.len pattern_VAR) 1))))
(assert (< 27 (str.len pattern_VAR)))
(assert (> (str.len pattern_VAR) 27))
(assert (> (str.len text_VAR) 27))
(assert (not (= 27 (- (str.len pattern_VAR) 1))))
(assert (< 28 (str.len pattern_VAR)))
(assert (> (str.len pattern_VAR) 28))
(assert (> (str.len text_VAR) 28))
(assert (not (= 28 (- (str.len pattern_VAR) 1))))
(assert (< 29 (str.len pattern_VAR)))
(assert (> (str.len pattern_VAR) 29))
(assert (> (str.len text_VAR) 29))
(assert (not (= 29 (- (str.len pattern_VAR) 1))))
(assert (< 30 (str.len pattern_VAR)))
(assert (> (str.len pattern_VAR) 30))
(assert (> (str.len text_VAR) 30))
(assert (not (= 30 (- (str.len pattern_VAR) 1))))
(assert (< 31 (str.len pattern_VAR)))
(assert (> (str.len pattern_VAR) 31))
(assert (> (str.len text_VAR) 31))
(assert (not (= 31 (- (str.len pattern_VAR) 1))))
(assert (< 32 (str.len pattern_VAR)))
(assert (> (str.len pattern_VAR) 32))
(assert (> (str.len text_VAR) 32))
(assert (not (= 32 (- (str.len pattern_VAR) 1))))
(assert (< 33 (str.len pattern_VAR)))
(assert (> (str.len pattern_VAR) 33))
(assert (> (str.len text_VAR) 33))
(assert (not (= 33 (- (str.len pattern_VAR) 1))))
(assert (< 34 (str.len pattern_VAR)))
(assert (> (str.len pattern_VAR) 34))
(assert (> (str.len text_VAR) 34))
(assert (not (= 34 (- (str.len pattern_VAR) 1))))
(assert (< 35 (str.len pattern_VAR)))
(assert (> (str.len pattern_VAR) 35))
(assert (> (str.len text_VAR) 35))
(assert (not (= 35 (- (str.len pattern_VAR) 1))))
(assert (< 36 (str.len pattern_VAR)))
(assert (> (str.len pattern_VAR) 36))
(assert (> (str.len text_VAR) 36))
(assert (not (= 36 (- (str.len pattern_VAR) 1))))
(assert (< 37 (str.len pattern_VAR)))
(assert (> (str.len pattern_VAR) 37))
(assert (> (str.len text_VAR) 37))
(assert (not (= 37 (- (str.len pattern_VAR) 1))))
(assert (< 38 (str.len pattern_VAR)))
(assert (> (str.len pattern_VAR) 38))
(assert (> (str.len text_VAR) 38))
(assert (not (= 38 (- (str.len pattern_VAR) 1))))
(assert (< 39 (str.len pattern_VAR)))
(assert (> (str.len pattern_VAR) 39))
(assert (> (str.len text_VAR) 39))
(assert (not (= 39 (- (str.len pattern_VAR) 1))))
(assert (< 40 (str.len pattern_VAR)))
(assert (> (str.len pattern_VAR) 40))
(assert (> (str.len text_VAR) 40))
(assert (not (= 40 (- (str.len pattern_VAR) 1))))
(assert (< 41 (str.len pattern_VAR)))
(assert (> (str.len pattern_VAR) 41))
(assert (> (str.len text_VAR) 41))
(assert (not (= 41 (- (str.len pattern_VAR) 1))))
(assert (< 42 (str.len pattern_VAR)))
(assert (> (str.len pattern_VAR) 42))
(assert (> (str.len text_VAR) 42))
(assert (not (= 42 (- (str.len pattern_VAR) 1))))
(assert (< 43 (str.len pattern_VAR)))
(assert (> (str.len pattern_VAR) 43))
(assert (> (str.len text_VAR) 43))
(assert (not (= 43 (- (str.len pattern_VAR) 1))))
(assert (< 44 (str.len pattern_VAR)))
(assert (> (str.len pattern_VAR) 44))
(assert (> (str.len text_VAR) 44))
(assert (not (= 44 (- (str.len pattern_VAR) 1))))
(assert (< 45 (str.len pattern_VAR)))
(assert (> (str.len pattern_VAR) 45))
(assert (> (str.len text_VAR) 45))
(assert (not (= 45 (- (str.len pattern_VAR) 1))))
(assert (< 46 (str.len pattern_VAR)))
(assert (> (str.len pattern_VAR) 46))
(assert (> (str.len text_VAR) 46))
(assert (not (= 46 (- (str.len pattern_VAR) 1))))
(assert (< 47 (str.len pattern_VAR)))
(assert (> (str.len pattern_VAR) 47))
(assert (> (str.len text_VAR) 47))
(assert (not (= 47 (- (str.len pattern_VAR) 1))))
(assert (< 48 (str.len pattern_VAR)))
(assert (> (str.len pattern_VAR) 48))
(assert (> (str.len text_VAR) 48))
(assert (not (= 48 (- (str.len pattern_VAR) 1))))
(assert (< 49 (str.len pattern_VAR)))
(assert (> (str.len pattern_VAR) 49))
(assert (> (str.len text_VAR) 49))
(assert (not (= 49 (- (str.len pattern_VAR) 1))))
(assert (< 50 (str.len pattern_VAR)))
(assert (> (str.len pattern_VAR) 50))
(assert (> (str.len text_VAR) 50))
(assert (not (= 50 (- (str.len pattern_VAR) 1))))
(assert (< 51 (str.len pattern_VAR)))
(assert (> (str.len pattern_VAR) 51))
(assert (> (str.len text_VAR) 51))
(assert (not (= 51 (- (str.len pattern_VAR) 1))))
(assert (< 52 (str.len pattern_VAR)))
(assert (> (str.len pattern_VAR) 52))
(assert (> (str.len text_VAR) 52))
(assert (not (= 52 (- (str.len pattern_VAR) 1))))
(assert (< 53 (str.len pattern_VAR)))
(assert (> (str.len pattern_VAR) 53))
(assert (> (str.len text_VAR) 53))
(assert (not (= 53 (- (str.len pattern_VAR) 1))))
(assert (< 54 (str.len pattern_VAR)))
(assert (> (str.len pattern_VAR) 54))
(assert (> (str.len text_VAR) 54))
(assert (not (= 54 (- (str.len pattern_VAR) 1))))
(assert (< 55 (str.len pattern_VAR)))
(assert (> (str.len pattern_VAR) 55))
(assert (> (str.len text_VAR) 55))
(assert (not (= 55 (- (str.len pattern_VAR) 1))))
(assert (< 56 (str.len pattern_VAR)))
(assert (> (str.len pattern_VAR) 56))
(assert (> (str.len text_VAR) 56))
(assert (not (= 56 (- (str.len pattern_VAR) 1))))
(assert (< 57 (str.len pattern_VAR)))
(assert (> (str.len pattern_VAR) 57))
(assert (> (str.len text_VAR) 57))
(assert (not (= 57 (- (str.len pattern_VAR) 1))))
(assert (< 58 (str.len pattern_VAR)))
(assert (> (str.len pattern_VAR) 58))
(assert (> (str.len text_VAR) 58))
(assert (not (= 58 (- (str.len pattern_VAR) 1))))
(assert (< 59 (str.len pattern_VAR)))
(assert (> (str.len pattern_VAR) 59))
(assert (> (str.len text_VAR) 59))
(assert (not (= 59 (- (str.len pattern_VAR) 1))))
(assert (< 60 (str.len pattern_VAR)))
(assert (> (str.len pattern_VAR) 60))
(assert (> (str.len text_VAR) 60))
(assert (not (= 60 (- (str.len pattern_VAR) 1))))
(assert (< 61 (str.len pattern_VAR)))
(assert (> (str.len pattern_VAR) 61))
(assert (> (str.len text_VAR) 61))
(assert (not (= 61 (- (str.len pattern_VAR) 1))))
(assert (< 62 (str.len pattern_VAR)))
(assert (> (str.len pattern_VAR) 62))
(assert (> (str.len text_VAR) 62))
(assert (not (= 62 (- (str.len pattern_VAR) 1))))
(assert (< 63 (str.len pattern_VAR)))
(assert (> (str.len pattern_VAR) 63))
(assert (> (str.len text_VAR) 63))
(assert (not (= 63 (- (str.len pattern_VAR) 1))))
(assert (< 64 (str.len pattern_VAR)))
(assert (> (str.len pattern_VAR) 64))
(assert (> (str.len text_VAR) 64))
(assert (not (= 64 (- (str.len pattern_VAR) 1))))
(assert (< 65 (str.len pattern_VAR)))
(assert (> (str.len pattern_VAR) 65))
(assert (> (str.len text_VAR) 65))
(assert (not (= 65 (- (str.len pattern_VAR) 1))))
(assert (< 66 (str.len pattern_VAR)))
(assert (> (str.len pattern_VAR) 66))
(assert (> (str.len text_VAR) 66))
(assert (not (= 66 (- (str.len pattern_VAR) 1))))
(assert (< 67 (str.len pattern_VAR)))
(assert (> (str.len pattern_VAR) 67))
(assert (> (str.len text_VAR) 67))
(assert (not (= 67 (- (str.len pattern_VAR) 1))))
(assert (< 68 (str.len pattern_VAR)))
(assert (> (str.len pattern_VAR) 68))
(assert (> (str.len text_VAR) 68))
(assert (not (= 68 (- (str.len pattern_VAR) 1))))
(assert (< 69 (str.len pattern_VAR)))
(assert (> (str.len pattern_VAR) 69))
(assert (> (str.len text_VAR) 69))
(assert (not (= 69 (- (str.len pattern_VAR) 1))))
(assert (< 70 (str.len pattern_VAR)))
(assert (> (str.len pattern_VAR) 70))
(assert (> (str.len text_VAR) 70))
(assert (not (= 70 (- (str.len pattern_VAR) 1))))
(assert (< 71 (str.len pattern_VAR)))
(assert (> (str.len pattern_VAR) 71))
(assert (> (str.len text_VAR) 71))
(assert (not (= 71 (- (str.len pattern_VAR) 1))))
(assert (< 72 (str.len pattern_VAR)))
(assert (> (str.len pattern_VAR) 72))
(assert (> (str.len text_VAR) 72))
(assert (not (= 72 (- (str.len pattern_VAR) 1))))
(assert (< 73 (str.len pattern_VAR)))
(assert (> (str.len pattern_VAR) 73))
(assert (> (str.len text_VAR) 73))
(assert (not (= 73 (- (str.len pattern_VAR) 1))))
(assert (< 74 (str.len pattern_VAR)))
(assert (> (str.len pattern_VAR) 74))
(assert (> (str.len text_VAR) 74))
(assert (not (= 74 (- (str.len pattern_VAR) 1))))
(assert (< 75 (str.len pattern_VAR)))
(assert (> (str.len pattern_VAR) 75))
(assert (> (str.len text_VAR) 75))
(assert (not (= 75 (- (str.len pattern_VAR) 1))))
(assert (< 76 (str.len pattern_VAR)))
(assert (> (str.len pattern_VAR) 76))
(assert (> (str.len text_VAR) 76))
(assert (not (= 76 (- (str.len pattern_VAR) 1))))
(assert (< 77 (str.len pattern_VAR)))
(assert (> (str.len pattern_VAR) 77))
(assert (> (str.len text_VAR) 77))
(assert (not (= 77 (- (str.len pattern_VAR) 1))))
(assert (< 78 (str.len pattern_VAR)))
(assert (> (str.len pattern_VAR) 78))
(assert (> (str.len text_VAR) 78))
(assert (not (= 78 (- (str.len pattern_VAR) 1))))
(assert (< 79 (str.len pattern_VAR)))
(assert (> (str.len pattern_VAR) 79))
(assert (> (str.len text_VAR) 79))
(assert (not (= 79 (- (str.len pattern_VAR) 1))))
(assert (< 80 (str.len pattern_VAR)))
(assert (> (str.len pattern_VAR) 80))
(assert (> (str.len text_VAR) 80))
(assert (not (= 80 (- (str.len pattern_VAR) 1))))
(assert (< 81 (str.len pattern_VAR)))
(assert (> (str.len pattern_VAR) 81))
(assert (> (str.len text_VAR) 81))
(assert (not (= 81 (- (str.len pattern_VAR) 1))))
(assert (< 82 (str.len pattern_VAR)))
(assert (> (str.len pattern_VAR) 82))
(assert (> (str.len text_VAR) 82))
(assert (not (= 82 (- (str.len pattern_VAR) 1))))
(assert (< 83 (str.len pattern_VAR)))
(assert (> (str.len pattern_VAR) 83))
(assert (> (str.len text_VAR) 83))
(assert (not (= 83 (- (str.len pattern_VAR) 1))))
(assert (< 84 (str.len pattern_VAR)))
(assert (> (str.len pattern_VAR) 84))
(assert (> (str.len text_VAR) 84))
(assert (not (= 84 (- (str.len pattern_VAR) 1))))
(assert (< 85 (str.len pattern_VAR)))
(assert (> (str.len pattern_VAR) 85))
(assert (> (str.len text_VAR) 85))
(assert (not (= 85 (- (str.len pattern_VAR) 1))))
(assert (< 86 (str.len pattern_VAR)))
(assert (> (str.len pattern_VAR) 86))
(assert (> (str.len text_VAR) 86))
(assert (not (= 86 (- (str.len pattern_VAR) 1))))
(assert (< 87 (str.len pattern_VAR)))
(assert (> (str.len pattern_VAR) 87))
(assert (> (str.len text_VAR) 87))
(assert (not (= 87 (- (str.len pattern_VAR) 1))))
(assert (< 88 (str.len pattern_VAR)))
(assert (> (str.len pattern_VAR) 88))
(assert (> (str.len text_VAR) 88))
(assert (not (= 88 (- (str.len pattern_VAR) 1))))
(assert (< 89 (str.len pattern_VAR)))
(assert (> (str.len pattern_VAR) 89))
(assert (> (str.len text_VAR) 89))
(assert (not (= 89 (- (str.len pattern_VAR) 1))))
(assert (< 90 (str.len pattern_VAR)))
(assert (> (str.len pattern_VAR) 90))
(assert (> (str.len text_VAR) 90))
(assert (not (= 90 (- (str.len pattern_VAR) 1))))
(assert (< 91 (str.len pattern_VAR)))
(assert (> (str.len pattern_VAR) 91))
(assert (> (str.len text_VAR) 91))
(assert (not (= 91 (- (str.len pattern_VAR) 1))))
(assert (< 92 (str.len pattern_VAR)))
(assert (> (str.len pattern_VAR) 92))
(assert (> (str.len text_VAR) 92))
(assert (not (= 92 (- (str.len pattern_VAR) 1))))
(assert (< 93 (str.len pattern_VAR)))
(assert (> (str.len pattern_VAR) 93))
(assert (> (str.len text_VAR) 93))
(assert (not (= 93 (- (str.len pattern_VAR) 1))))
(assert (< 94 (str.len pattern_VAR)))
(assert (> (str.len pattern_VAR) 94))
(assert (> (str.len text_VAR) 94))
(assert (not (= 94 (- (str.len pattern_VAR) 1))))
(assert (< 95 (str.len pattern_VAR)))
(assert (> (str.len pattern_VAR) 95))
(assert (> (str.len text_VAR) 95))
(assert (not (= 95 (- (str.len pattern_VAR) 1))))
(assert (< 96 (str.len pattern_VAR)))
(assert (> (str.len pattern_VAR) 96))
(assert (> (str.len text_VAR) 96))
(assert (not (= 96 (- (str.len pattern_VAR) 1))))
(assert (< 97 (str.len pattern_VAR)))
(assert (> (str.len pattern_VAR) 97))
(assert (> (str.len text_VAR) 97))
(assert (not (= 97 (- (str.len pattern_VAR) 1))))
(assert (< 98 (str.len pattern_VAR)))
(assert (> (str.len pattern_VAR) 98))
(assert (> (str.len text_VAR) 98))
(assert (not (= 98 (- (str.len pattern_VAR) 1))))
(assert (< 99 (str.len pattern_VAR)))
(assert (> (str.len pattern_VAR) 99))
(assert (> (str.len text_VAR) 99))
(assert (not (= 99 (- (str.len pattern_VAR) 1))))
(assert (< 100 (str.len pattern_VAR)))
(assert (> (str.len pattern_VAR) 100))
(assert (> (str.len text_VAR) 100))
(assert (not (= 100 (- (str.len pattern_VAR) 1))))
(assert (< 101 (str.len pattern_VAR)))
(assert (> (str.len pattern_VAR) 101))
(assert (> (str.len text_VAR) 101))
(assert (not (= 101 (- (str.len pattern_VAR) 1))))
(assert (< 102 (str.len pattern_VAR)))
(assert (> (str.len pattern_VAR) 102))
(assert (> (str.len text_VAR) 102))
(assert (not (= 102 (- (str.len pattern_VAR) 1))))
(assert (< 103 (str.len pattern_VAR)))
(assert (> (str.len pattern_VAR) 103))
(assert (> (str.len text_VAR) 103))
(assert (not (= 103 (- (str.len pattern_VAR) 1))))
(assert (< 104 (str.len pattern_VAR)))
(assert (> (str.len pattern_VAR) 104))
(assert (> (str.len text_VAR) 104))
(assert (not (= 104 (- (str.len pattern_VAR) 1))))
(assert (< 105 (str.len pattern_VAR)))
(assert (> (str.len pattern_VAR) 105))
(assert (> (str.len text_VAR) 105))
(assert (not (= 105 (- (str.len pattern_VAR) 1))))
(assert (< 106 (str.len pattern_VAR)))
(assert (> (str.len pattern_VAR) 106))
(assert (> (str.len text_VAR) 106))
(assert (not (= 106 (- (str.len pattern_VAR) 1))))
(assert (< 107 (str.len pattern_VAR)))
(assert (> (str.len pattern_VAR) 107))
(assert (> (str.len text_VAR) 107))
(assert (not (= 107 (- (str.len pattern_VAR) 1))))
(assert (< 108 (str.len pattern_VAR)))
(assert (> (str.len pattern_VAR) 108))
(assert (> (str.len text_VAR) 108))
(assert (not (= 108 (- (str.len pattern_VAR) 1))))
(assert (< 109 (str.len pattern_VAR)))
(assert (> (str.len pattern_VAR) 109))
(assert (> (str.len text_VAR) 109))
(assert (not (= 109 (- (str.len pattern_VAR) 1))))
(assert (< 110 (str.len pattern_VAR)))
(assert (> (str.len pattern_VAR) 110))
(assert (> (str.len text_VAR) 110))
(assert (not (= 110 (- (str.len pattern_VAR) 1))))
(assert (< 111 (str.len pattern_VAR)))
(assert (> (str.len pattern_VAR) 111))
(assert (> (str.len text_VAR) 111))
(assert (not (= 111 (- (str.len pattern_VAR) 1))))
(assert (< 112 (str.len pattern_VAR)))
(assert (> (str.len pattern_VAR) 112))
(assert (> (str.len text_VAR) 112))
(assert (not (= 112 (- (str.len pattern_VAR) 1))))
(assert (< 113 (str.len pattern_VAR)))
(assert (> (str.len pattern_VAR) 113))
(assert (> (str.len text_VAR) 113))
(assert (not (= 113 (- (str.len pattern_VAR) 1))))
(assert (< 114 (str.len pattern_VAR)))
(assert (> (str.len pattern_VAR) 114))
(assert (> (str.len text_VAR) 114))
(assert (not (= 114 (- (str.len pattern_VAR) 1))))
(assert (< 115 (str.len pattern_VAR)))
(assert (> (str.len pattern_VAR) 115))
(assert (> (str.len text_VAR) 115))
(assert (not (= 115 (- (str.len pattern_VAR) 1))))
(assert (< 116 (str.len pattern_VAR)))
(assert (> (str.len pattern_VAR) 116))
(assert (> (str.len text_VAR) 116))
(assert (not (= 116 (- (str.len pattern_VAR) 1))))
(assert (< 117 (str.len pattern_VAR)))
(assert (> (str.len pattern_VAR) 117))
(assert (> (str.len text_VAR) 117))
(assert (not (= 117 (- (str.len pattern_VAR) 1))))
(assert (< 118 (str.len pattern_VAR)))
(assert (> (str.len pattern_VAR) 118))
(assert (> (str.len text_VAR) 118))
(assert (not (= 118 (- (str.len pattern_VAR) 1))))
(assert (< 119 (str.len pattern_VAR)))
(assert (> (str.len pattern_VAR) 119))
(assert (> (str.len text_VAR) 119))
(assert (not (= 119 (- (str.len pattern_VAR) 1))))
(assert (< 120 (str.len pattern_VAR)))
(assert (> (str.len pattern_VAR) 120))
(assert (> (str.len text_VAR) 120))
(assert (not (= 120 (- (str.len pattern_VAR) 1))))
(assert (< 121 (str.len pattern_VAR)))
(assert (> (str.len pattern_VAR) 121))
(assert (> (str.len text_VAR) 121))
(assert (not (= 121 (- (str.len pattern_VAR) 1))))
(assert (< 122 (str.len pattern_VAR)))
(assert (> (str.len pattern_VAR) 122))
(assert (> (str.len text_VAR) 122))
(assert (not (= 122 (- (str.len pattern_VAR) 1))))
(assert (< 123 (str.len pattern_VAR)))
(assert (> (str.len pattern_VAR) 123))
(assert (> (str.len text_VAR) 123))
(assert (not (= 123 (- (str.len pattern_VAR) 1))))
(assert (< 124 (str.len pattern_VAR)))
(assert (> (str.len pattern_VAR) 124))
(assert (> (str.len text_VAR) 124))
(assert (not (= 124 (- (str.len pattern_VAR) 1))))
(assert (< 125 (str.len pattern_VAR)))
(assert (> (str.len pattern_VAR) 125))
(assert (> (str.len text_VAR) 125))
(assert (not (= 125 (- (str.len pattern_VAR) 1))))
(assert (< 126 (str.len pattern_VAR)))
(assert (> (str.len pattern_VAR) 126))
(assert (> (str.len text_VAR) 126))
(assert (not (= 126 (- (str.len pattern_VAR) 1))))
(assert (< 127 (str.len pattern_VAR)))
(assert (> (str.len pattern_VAR) 127))
(assert (> (str.len text_VAR) 127))
(assert (not (= 127 (- (str.len pattern_VAR) 1))))
(assert (< 128 (str.len pattern_VAR)))
(assert (> (str.len pattern_VAR) 128))
(assert (> (str.len text_VAR) 128))
(assert (not (= 128 (- (str.len pattern_VAR) 1))))
(assert (< 129 (str.len pattern_VAR)))
(assert (> (str.len pattern_VAR) 129))
(assert (> (str.len text_VAR) 129))
(assert (not (= 129 (- (str.len pattern_VAR) 1))))
(assert (< 130 (str.len pattern_VAR)))
(assert (> (str.len pattern_VAR) 130))
(assert (> (str.len text_VAR) 130))
(assert (not (= 130 (- (str.len pattern_VAR) 1))))
(assert (< 131 (str.len pattern_VAR)))
(assert (> (str.len pattern_VAR) 131))
(assert (> (str.len text_VAR) 131))
(assert (not (= 131 (- (str.len pattern_VAR) 1))))
(assert (< 132 (str.len pattern_VAR)))
(assert (> (str.len pattern_VAR) 132))
(assert (> (str.len text_VAR) 132))
(assert (not (= 132 (- (str.len pattern_VAR) 1))))
(assert (< 133 (str.len pattern_VAR)))
(assert (> (str.len pattern_VAR) 133))
(assert (> (str.len text_VAR) 133))
(assert (not (= 133 (- (str.len pattern_VAR) 1))))
(assert (< 134 (str.len pattern_VAR)))
(assert (> (str.len pattern_VAR) 134))
(assert (> (str.len text_VAR) 134))
(assert (not (= 134 (- (str.len pattern_VAR) 1))))
(assert (< 135 (str.len pattern_VAR)))
(assert (> (str.len pattern_VAR) 135))
(assert (> (str.len text_VAR) 135))
(assert (not (= 135 (- (str.len pattern_VAR) 1))))
(assert (< 136 (str.len pattern_VAR)))
(assert (> (str.len pattern_VAR) 136))
(assert (> (str.len text_VAR) 136))
(assert (not (= 136 (- (str.len pattern_VAR) 1))))
(assert (< 137 (str.len pattern_VAR)))
(assert (> (str.len pattern_VAR) 137))
(assert (> (str.len text_VAR) 137))
(assert (not (= 137 (- (str.len pattern_VAR) 1))))
(assert (< 138 (str.len pattern_VAR)))
(assert (> (str.len pattern_VAR) 138))
(assert (> (str.len text_VAR) 138))
(assert (not (= 138 (- (str.len pattern_VAR) 1))))
(assert (< 139 (str.len pattern_VAR)))
(assert (> (str.len pattern_VAR) 139))
(assert (> (str.len text_VAR) 139))
(assert (not (= 139 (- (str.len pattern_VAR) 1))))
(assert (< 140 (str.len pattern_VAR)))
(assert (> (str.len pattern_VAR) 140))
(assert (> (str.len text_VAR) 140))
(assert (not (= 140 (- (str.len pattern_VAR) 1))))
(assert (< 141 (str.len pattern_VAR)))
(assert (> (str.len pattern_VAR) 141))
(assert (> (str.len text_VAR) 141))
(assert (not (= 141 (- (str.len pattern_VAR) 1))))
(assert (< 142 (str.len pattern_VAR)))
(assert (> (str.len pattern_VAR) 142))
(assert (> (str.len text_VAR) 142))
(assert (not (= 142 (- (str.len pattern_VAR) 1))))
(assert (< 143 (str.len pattern_VAR)))
(assert (> (str.len pattern_VAR) 143))
(assert (> (str.len text_VAR) 143))
(assert (not (= 143 (- (str.len pattern_VAR) 1))))
(assert (< 144 (str.len pattern_VAR)))
(assert (> (str.len pattern_VAR) 144))
(assert (> (str.len text_VAR) 144))
(assert (not (= 144 (- (str.len pattern_VAR) 1))))
(assert (< 145 (str.len pattern_VAR)))
(assert (> (str.len pattern_VAR) 145))
(assert (> (str.len text_VAR) 145))
(assert (not (= 145 (- (str.len pattern_VAR) 1))))
(assert (< 146 (str.len pattern_VAR)))
(assert (> (str.len pattern_VAR) 146))
(assert (> (str.len text_VAR) 146))
(assert (not (= 146 (- (str.len pattern_VAR) 1))))
(assert (< 147 (str.len pattern_VAR)))
(assert (> (str.len pattern_VAR) 147))
(assert (> (str.len text_VAR) 147))
(assert (not (= 147 (- (str.len pattern_VAR) 1))))
(assert (< 148 (str.len pattern_VAR)))
(assert (> (str.len pattern_VAR) 148))
(assert (> (str.len text_VAR) 148))
(assert (not (= 148 (- (str.len pattern_VAR) 1))))
(assert (< 149 (str.len pattern_VAR)))
(assert (> (str.len pattern_VAR) 149))
(assert (> (str.len text_VAR) 149))
(assert (not (= 149 (- (str.len pattern_VAR) 1))))
(assert (< 150 (str.len pattern_VAR)))
(assert (> (str.len pattern_VAR) 150))
(assert (> (str.len text_VAR) 150))
(assert (not (= 150 (- (str.len pattern_VAR) 1))))
(assert (< 151 (str.len pattern_VAR)))
(assert (> (str.len pattern_VAR) 151))
(assert (> (str.len text_VAR) 151))
(assert (not (= 151 (- (str.len pattern_VAR) 1))))
(assert (< 152 (str.len pattern_VAR)))
(assert (> (str.len pattern_VAR) 152))
(assert (> (str.len text_VAR) 152))
(assert (not (= 152 (- (str.len pattern_VAR) 1))))
(assert (< 153 (str.len pattern_VAR)))
(assert (> (str.len pattern_VAR) 153))
(assert (> (str.len text_VAR) 153))
(assert (not (= 153 (- (str.len pattern_VAR) 1))))
(assert (< 154 (str.len pattern_VAR)))
(assert (> (str.len pattern_VAR) 154))
(assert (> (str.len text_VAR) 154))
(assert (not (= 154 (- (str.len pattern_VAR) 1))))
(assert (< 155 (str.len pattern_VAR)))
(assert (> (str.len pattern_VAR) 155))
(assert (> (str.len text_VAR) 155))
(assert (not (= 155 (- (str.len pattern_VAR) 1))))
(assert (< 156 (str.len pattern_VAR)))
(assert (> (str.len pattern_VAR) 156))
(assert (> (str.len text_VAR) 156))
(assert (not (= 156 (- (str.len pattern_VAR) 1))))
(assert (< 157 (str.len pattern_VAR)))
(assert (> (str.len pattern_VAR) 157))
(assert (> (str.len text_VAR) 157))
(assert (not (= 157 (- (str.len pattern_VAR) 1))))
(assert (< 158 (str.len pattern_VAR)))
(assert (> (str.len pattern_VAR) 158))
(assert (> (str.len text_VAR) 158))
(assert (not (= 158 (- (str.len pattern_VAR) 1))))
(assert (< 159 (str.len pattern_VAR)))
(assert (> (str.len pattern_VAR) 159))
(assert (> (str.len text_VAR) 159))
(assert (not (= 159 (- (str.len pattern_VAR) 1))))
(assert (< 160 (str.len pattern_VAR)))
(assert (> (str.len pattern_VAR) 160))
(assert (> (str.len text_VAR) 160))
(assert (not (= 160 (- (str.len pattern_VAR) 1))))
(assert (< 161 (str.len pattern_VAR)))
(assert (> (str.len pattern_VAR) 161))
(assert (> (str.len text_VAR) 161))
(assert (not (= 161 (- (str.len pattern_VAR) 1))))
(assert (< 162 (str.len pattern_VAR)))
(assert (> (str.len pattern_VAR) 162))
(assert (> (str.len text_VAR) 162))
(assert (not (= 162 (- (str.len pattern_VAR) 1))))
(assert (< 163 (str.len pattern_VAR)))
(assert (> (str.len pattern_VAR) 163))
(assert (> (str.len text_VAR) 163))
(assert (not (= 163 (- (str.len pattern_VAR) 1))))
(assert (< 164 (str.len pattern_VAR)))
(assert (> (str.len pattern_VAR) 164))
(assert (> (str.len text_VAR) 164))
(assert (not (= 164 (- (str.len pattern_VAR) 1))))
(assert (< 165 (str.len pattern_VAR)))
(assert (> (str.len pattern_VAR) 165))
(assert (> (str.len text_VAR) 165))
(assert (not (= 165 (- (str.len pattern_VAR) 1))))
(assert (< 166 (str.len pattern_VAR)))
(assert (> (str.len pattern_VAR) 166))
(assert (> (str.len text_VAR) 166))
(assert (not (= 166 (- (str.len pattern_VAR) 1))))
(assert (< 167 (str.len pattern_VAR)))
(assert (> (str.len pattern_VAR) 167))
(assert (> (str.len text_VAR) 167))
(assert (not (= 167 (- (str.len pattern_VAR) 1))))
(assert (< 168 (str.len pattern_VAR)))
(assert (> (str.len pattern_VAR) 168))
(assert (> (str.len text_VAR) 168))
(assert (not (= 168 (- (str.len pattern_VAR) 1))))
(assert (< 169 (str.len pattern_VAR)))
(assert (> (str.len pattern_VAR) 169))
(assert (> (str.len text_VAR) 169))
(assert (not (= 169 (- (str.len pattern_VAR) 1))))
(assert (< 170 (str.len pattern_VAR)))
(assert (> (str.len pattern_VAR) 170))
(assert (> (str.len text_VAR) 170))
(assert (not (= 170 (- (str.len pattern_VAR) 1))))
(assert (< 171 (str.len pattern_VAR)))
(assert (> (str.len pattern_VAR) 171))
(assert (> (str.len text_VAR) 171))
(assert (not (= 171 (- (str.len pattern_VAR) 1))))
(assert (< 172 (str.len pattern_VAR)))
(assert (> (str.len pattern_VAR) 172))
(assert (> (str.len text_VAR) 172))
(assert (not (= 172 (- (str.len pattern_VAR) 1))))
(assert (< 173 (str.len pattern_VAR)))
(assert (> (str.len pattern_VAR) 173))
(assert (> (str.len text_VAR) 173))
(assert (not (= 173 (- (str.len pattern_VAR) 1))))
(assert (< 174 (str.len pattern_VAR)))
(assert (> (str.len pattern_VAR) 174))
(assert (> (str.len text_VAR) 174))
(assert (not (= 174 (- (str.len pattern_VAR) 1))))
(assert (< 175 (str.len pattern_VAR)))
(assert (> (str.len pattern_VAR) 175))
(assert (> (str.len text_VAR) 175))
(assert (not (= 175 (- (str.len pattern_VAR) 1))))
(assert (< 176 (str.len pattern_VAR)))
(assert (> (str.len pattern_VAR) 176))
(assert (> (str.len text_VAR) 176))
(assert (not (= 176 (- (str.len pattern_VAR) 1))))
(assert (< 177 (str.len pattern_VAR)))
(assert (> (str.len pattern_VAR) 177))
(assert (> (str.len text_VAR) 177))
(assert (not (= 177 (- (str.len pattern_VAR) 1))))
(assert (< 178 (str.len pattern_VAR)))
(assert (> (str.len pattern_VAR) 178))
(assert (> (str.len text_VAR) 178))
(assert (not (= 178 (- (str.len pattern_VAR) 1))))
(assert (< 179 (str.len pattern_VAR)))
(assert (> (str.len pattern_VAR) 179))
(assert (> (str.len text_VAR) 179))
(assert (not (= 179 (- (str.len pattern_VAR) 1))))
(assert (< 180 (str.len pattern_VAR)))
(assert (> (str.len pattern_VAR) 180))
(assert (> (str.len text_VAR) 180))
(assert (not (= 180 (- (str.len pattern_VAR) 1))))
(assert (< 181 (str.len pattern_VAR)))
(assert (> (str.len pattern_VAR) 181))
(assert (> (str.len text_VAR) 181))
(assert (not (= 181 (- (str.len pattern_VAR) 1))))
(assert (< 182 (str.len pattern_VAR)))
(assert (> (str.len pattern_VAR) 182))
(assert (> (str.len text_VAR) 182))
(assert (not (= 182 (- (str.len pattern_VAR) 1))))
(assert (< 183 (str.len pattern_VAR)))
(assert (> (str.len pattern_VAR) 183))
(assert (> (str.len text_VAR) 183))
(assert (not (= 183 (- (str.len pattern_VAR) 1))))
(assert (< 184 (str.len pattern_VAR)))
(assert (> (str.len pattern_VAR) 184))
(assert (> (str.len text_VAR) 184))
(assert (not (= 184 (- (str.len pattern_VAR) 1))))
(assert (< 185 (str.len pattern_VAR)))
(assert (> (str.len pattern_VAR) 185))
(assert (> (str.len text_VAR) 185))
(assert (not (= 185 (- (str.len pattern_VAR) 1))))
(assert (< 186 (str.len pattern_VAR)))
(assert (> (str.len pattern_VAR) 186))
(assert (> (str.len text_VAR) 186))
(assert (not (= 186 (- (str.len pattern_VAR) 1))))
(assert (< 187 (str.len pattern_VAR)))
(assert (> (str.len pattern_VAR) 187))
(assert (> (str.len text_VAR) 187))
(assert (not (= 187 (- (str.len pattern_VAR) 1))))
(assert (< 188 (str.len pattern_VAR)))
(assert (> (str.len pattern_VAR) 188))
(assert (> (str.len text_VAR) 188))
(assert (not (= 188 (- (str.len pattern_VAR) 1))))
(assert (< 189 (str.len pattern_VAR)))
(assert (> (str.len pattern_VAR) 189))
(assert (> (str.len text_VAR) 189))
(assert (not (= 189 (- (str.len pattern_VAR) 1))))
(assert (< 190 (str.len pattern_VAR)))
(assert (> (str.len pattern_VAR) 190))
(assert (> (str.len text_VAR) 190))
(assert (not (= 190 (- (str.len pattern_VAR) 1))))
(assert (< 191 (str.len pattern_VAR)))
(assert (> (str.len pattern_VAR) 191))
(assert (> (str.len text_VAR) 191))
(assert (not (= 191 (- (str.len pattern_VAR) 1))))
(assert (< 192 (str.len pattern_VAR)))
(assert (> (str.len pattern_VAR) 192))
(assert (> (str.len text_VAR) 192))
(assert (not (= 192 (- (str.len pattern_VAR) 1))))
(assert (< 193 (str.len pattern_VAR)))
(assert (> (str.len pattern_VAR) 193))
(assert (> (str.len text_VAR) 193))
(assert (not (= 193 (- (str.len pattern_VAR) 1))))
(assert (< 194 (str.len pattern_VAR)))
(assert (> (str.len pattern_VAR) 194))
(assert (> (str.len text_VAR) 194))
(assert (not (= 194 (- (str.len pattern_VAR) 1))))
(assert (< 195 (str.len pattern_VAR)))
(assert (> (str.len pattern_VAR) 195))
(assert (> (str.len text_VAR) 195))
(assert (not (= 195 (- (str.len pattern_VAR) 1))))
(assert (< 196 (str.len pattern_VAR)))
(assert (> (str.len pattern_VAR) 196))
(assert (> (str.len text_VAR) 196))
(assert (not (= 196 (- (str.len pattern_VAR) 1))))
(assert (< 197 (str.len pattern_VAR)))
(assert (> (str.len pattern_VAR) 197))
(assert (> (str.len text_VAR) 197))
(assert (not (= 197 (- (str.len pattern_VAR) 1))))
(assert (< 198 (str.len pattern_VAR)))
(assert (> (str.len pattern_VAR) 198))
(assert (> (str.len text_VAR) 198))
(assert (not (= 198 (- (str.len pattern_VAR) 1))))
(assert (< 199 (str.len pattern_VAR)))
(assert (> (str.len pattern_VAR) 199))
(assert (> (str.len text_VAR) 199))
(assert (not (= 199 (- (str.len pattern_VAR) 1))))
(assert (< 200 (str.len pattern_VAR)))
(assert (> (str.len pattern_VAR) 200))
(assert (> (str.len text_VAR) 200))
(assert (not (= 200 (- (str.len pattern_VAR) 1))))
(assert (< 201 (str.len pattern_VAR)))
(assert (> (str.len pattern_VAR) 201))
(assert (> (str.len text_VAR) 201))
(assert (not (= 201 (- (str.len pattern_VAR) 1))))
(assert (< 202 (str.len pattern_VAR)))
(assert (> (str.len pattern_VAR) 202))
(assert (> (str.len text_VAR) 202))
(assert (not (= 202 (- (str.len pattern_VAR) 1))))
(assert (< 203 (str.len pattern_VAR)))
(assert (> (str.len pattern_VAR) 203))
(assert (> (str.len text_VAR) 203))
(assert (not (= 203 (- (str.len pattern_VAR) 1))))
(assert (< 204 (str.len pattern_VAR)))
(assert (> (str.len pattern_VAR) 204))
(assert (> (str.len text_VAR) 204))
(assert (not (= 204 (- (str.len pattern_VAR) 1))))
(assert (< 205 (str.len pattern_VAR)))
(assert (> (str.len pattern_VAR) 205))
(assert (> (str.len text_VAR) 205))
(assert (not (= 205 (- (str.len pattern_VAR) 1))))
(assert (< 206 (str.len pattern_VAR)))
(assert (> (str.len pattern_VAR) 206))
(assert (> (str.len text_VAR) 206))
(assert (not (= 206 (- (str.len pattern_VAR) 1))))
(assert (< 207 (str.len pattern_VAR)))
(assert (> (str.len pattern_VAR) 207))
(assert (> (str.len text_VAR) 207))
(assert (not (= 207 (- (str.len pattern_VAR) 1))))
(assert (< 208 (str.len pattern_VAR)))
(assert (> (str.len pattern_VAR) 208))
(assert (> (str.len text_VAR) 208))
(assert (not (= 208 (- (str.len pattern_VAR) 1))))
(assert (< 209 (str.len pattern_VAR)))
(assert (> (str.len pattern_VAR) 209))
(assert (> (str.len text_VAR) 209))
(assert (not (= 209 (- (str.len pattern_VAR) 1))))
(assert (< 210 (str.len pattern_VAR)))
(assert (> (str.len pattern_VAR) 210))
(assert (> (str.len text_VAR) 210))
(assert (not (= 210 (- (str.len pattern_VAR) 1))))
(assert (< 211 (str.len pattern_VAR)))
(assert (> (str.len pattern_VAR) 211))
(assert (> (str.len text_VAR) 211))
(assert (not (= 211 (- (str.len pattern_VAR) 1))))
(assert (< 212 (str.len pattern_VAR)))
(assert (> (str.len pattern_VAR) 212))
(assert (> (str.len text_VAR) 212))
(assert (not (= 212 (- (str.len pattern_VAR) 1))))
(assert (< 213 (str.len pattern_VAR)))
(assert (> (str.len pattern_VAR) 213))
(assert (> (str.len text_VAR) 213))
(assert (not (= 213 (- (str.len pattern_VAR) 1))))
(assert (< 214 (str.len pattern_VAR)))
(assert (> (str.len pattern_VAR) 214))
(assert (> (str.len text_VAR) 214))
(assert (not (= 214 (- (str.len pattern_VAR) 1))))
(assert (< 215 (str.len pattern_VAR)))
(assert (> (str.len pattern_VAR) 215))
(assert (> (str.len text_VAR) 215))
(assert (not (= 215 (- (str.len pattern_VAR) 1))))
(assert (< 216 (str.len pattern_VAR)))
(assert (> (str.len pattern_VAR) 216))
(assert (> (str.len text_VAR) 216))
(assert (not (= 216 (- (str.len pattern_VAR) 1))))
(assert (< 217 (str.len pattern_VAR)))
(assert (> (str.len pattern_VAR) 217))
(assert (> (str.len text_VAR) 217))
(assert (not (= 217 (- (str.len pattern_VAR) 1))))
(assert (< 218 (str.len pattern_VAR)))
(assert (> (str.len pattern_VAR) 218))
(assert (> (str.len text_VAR) 218))
(assert (not (= 218 (- (str.len pattern_VAR) 1))))
(assert (< 219 (str.len pattern_VAR)))
(assert (> (str.len pattern_VAR) 219))
(assert (> (str.len text_VAR) 219))
(assert (not (= 219 (- (str.len pattern_VAR) 1))))
(assert (< 220 (str.len pattern_VAR)))
(assert (> (str.len pattern_VAR) 220))
(assert (> (str.len text_VAR) 220))
(assert (not (= 220 (- (str.len pattern_VAR) 1))))
(assert (< 221 (str.len pattern_VAR)))
(assert (> (str.len pattern_VAR) 221))
(assert (> (str.len text_VAR) 221))
(assert (not (= 221 (- (str.len pattern_VAR) 1))))
(assert (< 222 (str.len pattern_VAR)))
(assert (> (str.len pattern_VAR) 222))
(assert (> (str.len text_VAR) 222))
(assert (not (= 222 (- (str.len pattern_VAR) 1))))
(assert (< 223 (str.len pattern_VAR)))
(assert (> (str.len pattern_VAR) 223))
(assert (> (str.len text_VAR) 223))
(assert (not (= 223 (- (str.len pattern_VAR) 1))))
(assert (< 224 (str.len pattern_VAR)))
(assert (> (str.len pattern_VAR) 224))
(assert (> (str.len text_VAR) 224))
(assert (not (= 224 (- (str.len pattern_VAR) 1))))
(assert (< 225 (str.len pattern_VAR)))
(assert (> (str.len pattern_VAR) 225))
(assert (> (str.len text_VAR) 225))
(assert (not (= 225 (- (str.len pattern_VAR) 1))))
(assert (< 226 (str.len pattern_VAR)))
(assert (> (str.len pattern_VAR) 226))
(assert (> (str.len text_VAR) 226))
(assert (not (= 226 (- (str.len pattern_VAR) 1))))
(assert (< 227 (str.len pattern_VAR)))
(assert (> (str.len pattern_VAR) 227))
(assert (> (str.len text_VAR) 227))
(assert (not (= 227 (- (str.len pattern_VAR) 1))))
(assert (< 228 (str.len pattern_VAR)))
(assert (> (str.len pattern_VAR) 228))
(assert (> (str.len text_VAR) 228))
(assert (not (= 228 (- (str.len pattern_VAR) 1))))
(assert (< 229 (str.len pattern_VAR)))
(assert (not (> (str.len pattern_VAR) 229)))
(check-sat)
(get-value (pattern_VAR))
(get-value (text_VAR))
